c generated by sgen
p cnf 41 92
-2 -3 -4 0
-1 -3 -4 0
-1 -2 -4 0
-1 -2 -3 0
-6 -7 -8 0
-5 -7 -8 0
-5 -6 -8 0
-5 -6 -7 0
-10 -11 -12 0
-9 -11 -12 0
-9 -10 -12 0
-9 -10 -11 0
-14 -15 -16 0
-13 -15 -16 0
-13 -14 -16 0
-13 -14 -15 0
-18 -19 -20 0
-17 -19 -20 0
-17 -18 -20 0
-17 -18 -19 0
-22 -23 -24 0
-21 -23 -24 0
-21 -22 -24 0
-21 -22 -23 0
-26 -27 -28 0
-25 -27 -28 0
-25 -26 -28 0
-25 -26 -27 0
-30 -31 -32 0
-29 -31 -32 0
-29 -30 -32 0
-29 -30 -31 0
-34 -35 -36 0
-33 -35 -36 0
-33 -34 -36 0
-33 -34 -35 0
-37 -38 -39 0
-37 -38 -40 0
-37 -38 -41 0
-37 -39 -40 0
-37 -39 -41 0
-37 -40 -41 0
-38 -39 -40 0
-38 -39 -41 0
-38 -40 -41 0
-39 -40 -41 0
38 18 25 0
31 18 25 0
31 38 25 0
31 38 18 0
36 14 24 0
39 14 24 0
39 36 24 0
39 36 14 0
10 1 16 0
20 1 16 0
20 10 16 0
20 10 1 0
9 37 35 0
7 37 35 0
7 9 35 0
7 9 37 0
5 12 15 0
28 12 15 0
28 5 15 0
28 5 12 0
21 17 30 0
11 17 30 0
11 21 30 0
11 21 17 0
13 34 26 0
29 34 26 0
29 13 26 0
29 13 34 0
6 33 4 0
19 33 4 0
19 6 4 0
19 6 33 0
22 40 27 0
3 40 27 0
3 22 27 0
3 22 40 0
41 23 8 0
41 23 32 0
41 23 2 0
41 8 32 0
41 8 2 0
41 32 2 0
23 8 32 0
23 8 2 0
23 32 2 0
8 32 2 0
